\ENCODING=ISO-8859-1
\Problem name: nSARP

Maximize
 obj: 6.36 x(0,1,0) + 6.36 x(0,1,1) + 6.424 x(0,2,0) + 6.424 x(0,2,1)
      + 6.629 x(0,3,0) + 6.629 x(0,3,1) + 6.63 x(0,4,0) + 6.63 x(0,4,1)
      + 6.36 x(0,5,0) + 6.36 x(0,5,1) + 5.961 x(0,6,0) + 5.961 x(0,6,1)
      + 6.486 x(0,7,0) + 6.486 x(0,7,1) + 6.742 x(0,8,0) + 6.742 x(0,8,1)
      + 6.801 x(0,9,0) + 6.801 x(0,9,1) + 7.219 x(0,10,0) + 7.219 x(0,10,1)
      + 6.717 x(0,11,0) + 6.717 x(0,11,1) + 7.273 x(0,14,0) + 7.273 x(0,14,1)
      + 7.664 x(1,0,0) + 7.664 x(1,0,1) + 7.833 x(1,2,0) + 7.833 x(1,2,1)
      + 7.952 x(1,3,0) + 7.952 x(1,3,1) + 7.728 x(1,4,0) + 7.728 x(1,4,1)
      + 7.76 x(1,5,0) + 7.76 x(1,5,1) + 7.287 x(1,6,0) + 7.287 x(1,6,1)
      + 7.781 x(1,7,0) + 7.781 x(1,7,1) + 7.619 x(1,8,0) + 7.619 x(1,8,1)
      + 7.98 x(1,9,0) + 7.98 x(1,9,1) + 7.624 x(1,10,0) + 7.624 x(1,10,1)
      + 7.734 x(1,11,0) + 7.734 x(1,11,1) + 8.278 x(1,14,0) + 8.278 x(1,14,1)
      + 8.022 x(2,0,0) + 8.022 x(2,0,1) + 7.935 x(2,1,0) + 7.935 x(2,1,1)
      + 8.145 x(2,3,0) + 8.145 x(2,3,1) + 7.695 x(2,4,0) + 7.695 x(2,4,1)
      + 7.894 x(2,5,0) + 7.894 x(2,5,1) + 7.481 x(2,6,0) + 7.481 x(2,6,1)
      + 8.043 x(2,7,0) + 8.043 x(2,7,1) + 8.212 x(2,8,0) + 8.212 x(2,8,1)
      + 7.92 x(2,9,0) + 7.92 x(2,9,1) + 7.95 x(2,10,0) + 7.95 x(2,10,1)
      + 7.681 x(2,11,0) + 7.681 x(2,11,1) + 8.443 x(2,14,0) + 8.443 x(2,14,1)
      + 7.511 x(3,0,0) + 7.511 x(3,0,1) + 7.336 x(3,1,0) + 7.336 x(3,1,1)
      + 7.363 x(3,2,0) + 7.363 x(3,2,1) + 7.245 x(3,4,0) + 7.245 x(3,4,1)
      + 7.311 x(3,5,0) + 7.311 x(3,5,1) + 6.891 x(3,6,0) + 6.891 x(3,6,1)
      + 7.46 x(3,7,0) + 7.46 x(3,7,1) + 7.65 x(3,8,0) + 7.65 x(3,8,1)
      + 7.561 x(3,9,0) + 7.561 x(3,9,1) + 7.501 x(3,10,0) + 7.501 x(3,10,1)
      + 7.23 x(3,11,0) + 7.23 x(3,11,1) + 7.888 x(3,14,0) + 7.888 x(3,14,1)
      + 7.845 x(4,0,0) + 7.845 x(4,0,1) + 7.384 x(4,1,0) + 7.384 x(4,1,1)
      + 7.41 x(4,2,0) + 7.41 x(4,2,1) + 7.545 x(4,3,0) + 7.545 x(4,3,1)
      + 7.238 x(4,5,0) + 7.238 x(4,5,1) + 6.765 x(4,6,0) + 6.765 x(4,6,1)
      + 7.314 x(4,7,0) + 7.314 x(4,7,1) + 7.508 x(4,8,0) + 7.508 x(4,8,1)
      + 7.733 x(4,9,0) + 7.733 x(4,9,1) + 7.827 x(4,10,0) + 7.827 x(4,10,1)
      + 7.668 x(4,11,0) + 7.668 x(4,11,1) + 8.026 x(4,14,0) + 8.026 x(4,14,1)
      + 7.275 x(5,0,0) + 7.275 x(5,0,1) + 7.782 x(5,1,0) + 7.782 x(5,1,1)
      + 7.809 x(5,2,0) + 7.809 x(5,2,1) + 7.788 x(5,3,0) + 7.788 x(5,3,1)
      + 7.045 x(5,4,0) + 7.045 x(5,4,1) + 7.584 x(5,6,0) + 7.584 x(5,6,1)
      + 7.839 x(5,7,0) + 7.839 x(5,7,1) + 7.524 x(5,8,0) + 7.524 x(5,8,1)
      + 7.475 x(5,9,0) + 7.475 x(5,9,1) + 7.342 x(5,10,0) + 7.342 x(5,10,1)
      + 7.14 x(5,11,0) + 7.14 x(5,11,1) + 8.173 x(5,14,0) + 8.173 x(5,14,1)
      + 7.83 x(6,0,0) + 7.83 x(6,0,1) + 8.337 x(6,1,0) + 8.337 x(6,1,1)
      + 8.364 x(6,2,0) + 8.364 x(6,2,1) + 8.343 x(6,3,0) + 8.343 x(6,3,1)
      + 7.6 x(6,4,0) + 7.6 x(6,4,1) + 8.337 x(6,5,0) + 8.337 x(6,5,1)
      + 8.42 x(6,7,0) + 8.42 x(6,7,1) + 8.089 x(6,8,0) + 8.089 x(6,8,1)
      + 7.981 x(6,9,0) + 7.981 x(6,9,1) + 7.908 x(6,10,0) + 7.908 x(6,10,1)
      + 7.636 x(6,11,0) + 7.636 x(6,11,1) + 8.671 x(6,14,0) + 8.671 x(6,14,1)
      + 8.714 x(7,0,0) + 8.714 x(7,0,1) + 8.212 x(7,1,0) + 8.212 x(7,1,1)
      + 8.238 x(7,2,0) + 8.238 x(7,2,1) + 8.467 x(7,3,0) + 8.467 x(7,3,1)
      + 8.323 x(7,4,0) + 8.323 x(7,4,1) + 8.212 x(7,5,0) + 8.212 x(7,5,1)
      + 8.064 x(7,6,0) + 8.064 x(7,6,1) + 8.618 x(7,8,0) + 8.618 x(7,8,1)
      + 8.374 x(7,9,0) + 8.374 x(7,9,1) + 8.631 x(7,10,0) + 8.631 x(7,10,1)
      + 8.252 x(7,11,0) + 8.252 x(7,11,1) + 9.061 x(7,14,0) + 9.061 x(7,14,1)
      + 8.67 x(8,0,0) + 8.67 x(8,0,1) + 7.974 x(8,1,0) + 7.974 x(8,1,1)
      + 8.001 x(8,2,0) + 8.001 x(8,2,1) + 8.23 x(8,3,0) + 8.23 x(8,3,1)
      + 8.404 x(8,4,0) + 8.404 x(8,4,1) + 7.974 x(8,5,0) + 7.974 x(8,5,1)
      + 7.849 x(8,6,0) + 7.849 x(8,6,1) + 8.137 x(8,7,0) + 8.137 x(8,7,1)
      + 8.351 x(8,9,0) + 8.351 x(8,9,1) + 8.6 x(8,10,0) + 8.6 x(8,10,1)
      + 8.266 x(8,11,0) + 8.266 x(8,11,1) + 9.079 x(8,14,0) + 9.079 x(8,14,1)
      + 7.667 x(9,0,0) + 7.667 x(9,0,1) + 7.193 x(9,1,0) + 7.193 x(9,1,1)
      + 7.219 x(9,2,0) + 7.219 x(9,2,1) + 7.326 x(9,3,0) + 7.326 x(9,3,1)
      + 7.739 x(9,4,0) + 7.739 x(9,4,1) + 7.193 x(9,5,0) + 7.193 x(9,5,1)
      + 6.744 x(9,6,0) + 6.744 x(9,6,1) + 7.198 x(9,7,0) + 7.198 x(9,7,1)
      + 7.286 x(9,8,0) + 7.286 x(9,8,1) + 7.566 x(9,10,0) + 7.566 x(9,10,1)
      + 7.786 x(9,11,0) + 7.786 x(9,11,1) + 8.02 x(9,14,0) + 8.02 x(9,14,1)
      + 7.748 x(10,0,0) + 7.748 x(10,0,1) + 7.032 x(10,1,0) + 7.032 x(10,1,1)
      + 7.058 x(10,2,0) + 7.058 x(10,2,1) + 7.223 x(10,3,0) + 7.223 x(10,3,1)
      + 7.51 x(10,4,0) + 7.51 x(10,4,1) + 7.032 x(10,5,0) + 7.032 x(10,5,1)
      + 6.806 x(10,6,0) + 6.806 x(10,6,1) + 7.095 x(10,7,0) + 7.095 x(10,7,1)
      + 7.235 x(10,8,0) + 7.235 x(10,8,1) + 7.456 x(10,9,0) + 7.456 x(10,9,1)
      + 7.52 x(10,11,0) + 7.52 x(10,11,1) + 8.122 x(10,14,0) + 8.122 x(10,14,1)
      + 7.816 x(11,0,0) + 7.816 x(11,0,1) + 7.335 x(11,1,0) + 7.335 x(11,1,1)
      + 7.362 x(11,2,0) + 7.362 x(11,2,1) + 7.514 x(11,3,0) + 7.514 x(11,3,1)
      + 7.95 x(11,4,0) + 7.95 x(11,4,1) + 7.335 x(11,5,0) + 7.335 x(11,5,1)
      + 6.847 x(11,6,0) + 6.847 x(11,6,1) + 7.386 x(11,7,0) + 7.386 x(11,7,1)
      + 7.458 x(11,8,0) + 7.458 x(11,8,1) + 7.674 x(11,9,0) + 7.674 x(11,9,1)
      + 7.816 x(11,10,0) + 7.816 x(11,10,1) + 8.407 x(11,14,0)
      + 8.407 x(11,14,1) - 0.422 x(12,0,0) - 0.422 x(12,0,1) - 0.696 x(12,1,0)
      - 0.696 x(12,1,1) - 0.667 x(12,2,0) - 0.667 x(12,2,1) - 0.445 x(12,3,0)
      - 0.445 x(12,3,1) - 0.662 x(12,4,0) - 0.662 x(12,4,1) - 0.696 x(12,5,0)
      - 0.696 x(12,5,1) - 1.058 x(12,6,0) - 1.058 x(12,6,1) - 0.547 x(12,7,0)
      - 0.547 x(12,7,1) - 0.201 x(12,8,0) - 0.201 x(12,8,1) - 0.521 x(12,9,0)
      - 0.521 x(12,9,1) - 0.422 x(12,10,0) - 0.422 x(12,10,1)
      - 0.676 x(12,11,0) - 0.676 x(12,11,1) - 0.422 x(13,0,0) - 0.422 x(13,0,1)
      - 0.696 x(13,1,0) - 0.696 x(13,1,1) - 0.667 x(13,2,0) - 0.667 x(13,2,1)
      - 0.445 x(13,3,0) - 0.445 x(13,3,1) - 0.662 x(13,4,0) - 0.662 x(13,4,1)
      - 0.696 x(13,5,0) - 0.696 x(13,5,1) - 1.058 x(13,6,0) - 1.058 x(13,6,1)
      - 0.547 x(13,7,0) - 0.547 x(13,7,1) - 0.201 x(13,8,0) - 0.201 x(13,8,1)
      - 0.521 x(13,9,0) - 0.521 x(13,9,1) - 0.422 x(13,10,0) - 0.422 x(13,10,1)
      - 0.676 x(13,11,0) - 0.676 x(13,11,1) + 0 y(14,0) + 0 y(14,1) + 0 w(14)
      + id3299
Subject To
 Constraint1_0:     x(0,1,0) + x(0,1,1) + x(0,2,0) + x(0,2,1) + x(0,3,0)
                    + x(0,3,1) + x(0,4,0) + x(0,4,1) + x(0,5,0) + x(0,5,1)
                    + x(0,6,0) + x(0,6,1) + x(0,7,0) + x(0,7,1) + x(0,8,0)
                    + x(0,8,1) + x(0,9,0) + x(0,9,1) + x(0,10,0) + x(0,10,1)
                    + x(0,11,0) + x(0,11,1) + x(0,14,0) + x(0,14,1)  = 1
 Constraint1_1:     x(1,0,0) + x(1,0,1) + x(1,2,0) + x(1,2,1) + x(1,3,0)
                    + x(1,3,1) + x(1,4,0) + x(1,4,1) + x(1,5,0) + x(1,5,1)
                    + x(1,6,0) + x(1,6,1) + x(1,7,0) + x(1,7,1) + x(1,8,0)
                    + x(1,8,1) + x(1,9,0) + x(1,9,1) + x(1,10,0) + x(1,10,1)
                    + x(1,11,0) + x(1,11,1) + x(1,14,0) + x(1,14,1)  = 1
 Constraint1_2:     x(2,0,0) + x(2,0,1) + x(2,1,0) + x(2,1,1) + x(2,3,0)
                    + x(2,3,1) + x(2,4,0) + x(2,4,1) + x(2,5,0) + x(2,5,1)
                    + x(2,6,0) + x(2,6,1) + x(2,7,0) + x(2,7,1) + x(2,8,0)
                    + x(2,8,1) + x(2,9,0) + x(2,9,1) + x(2,10,0) + x(2,10,1)
                    + x(2,11,0) + x(2,11,1) + x(2,14,0) + x(2,14,1)  = 1
 Constraint1_3:     x(3,0,0) + x(3,0,1) + x(3,1,0) + x(3,1,1) + x(3,2,0)
                    + x(3,2,1) + x(3,4,0) + x(3,4,1) + x(3,5,0) + x(3,5,1)
                    + x(3,6,0) + x(3,6,1) + x(3,7,0) + x(3,7,1) + x(3,8,0)
                    + x(3,8,1) + x(3,9,0) + x(3,9,1) + x(3,10,0) + x(3,10,1)
                    + x(3,11,0) + x(3,11,1) + x(3,14,0) + x(3,14,1)  = 1
 Constraint1_4:     x(4,0,0) + x(4,0,1) + x(4,1,0) + x(4,1,1) + x(4,2,0)
                    + x(4,2,1) + x(4,3,0) + x(4,3,1) + x(4,5,0) + x(4,5,1)
                    + x(4,6,0) + x(4,6,1) + x(4,7,0) + x(4,7,1) + x(4,8,0)
                    +